unknown
(model
; cardinality of BoundSet is 2
(declare-sort BoundSet 0)
; rep: @uc_BoundSet_0
; rep: @uc_BoundSet_1
(declare-sort UnboundSet 0)
(define-fun c1 () BoundSet @uc_BoundSet_0)
(define-fun c2 () BoundSet @uc_BoundSet_0)
(define-fun IsRunTogether ((BOUND_VARIABLE_410 BoundSet)) Bool true)
(define-fun IsOnGreenGrass ((BOUND_VARIABLE_410 BoundSet)) Bool true)
(define-fun IsMoreThanOne ((BOUND_VARIABLE_410 BoundSet)) Bool false)
(define-fun IsDog ((BOUND_VARIABLE_410 BoundSet)) Bool false)
)
sat
(model
; cardinality of BoundSet is 1
(declare-sort BoundSet 0)
; rep: @uc_BoundSet_0
(declare-sort UnboundSet 0)
(define-fun c1 () BoundSet @uc_BoundSet_0)
(define-fun c2 () BoundSet @uc_BoundSet_0)
(define-fun IsRunTogether ((BOUND_VARIABLE_472 BoundSet)) Bool true)
(define-fun IsOnGreenGrass ((BOUND_VARIABLE_472 BoundSet)) Bool true)
(define-fun IsMoreThanOne ((BOUND_VARIABLE_472 BoundSet)) Bool true)
(define-fun IsDog ((BOUND_VARIABLE_472 BoundSet)) Bool false)
)
